385736 15676.1
27838.2 303194
14807.5 358236
24248.8 306886
283073 74142.8
176473 179898
198406 136988
343476 21515.9
133500 226297
156828 194451
255627 92458.9
198074 139931
176620 176594
80409.3 287584
208109 132581
320628 22786.2
55159.9 289070
365346 19474.3
223950 131009
150358 221977
156652 199041
19047 322834
150484 210342
197264 147563
91889.8 265529
259080 91060.7
272752 86691.6
126745 237449
374663 16002.4
250574 96517.3
104719 254255
306087 50595.3
172448 184704
197087 151071
294064 60840.3
246244 101931
224966 129311
242273 121251
349478 21076.2
279506 82722.4
253174 95596
112076 241079
81442 273261
318872 37010.8
258493 91068.5
319201 30636.4
